p edge 22 154
e 1 2
e 1 7
e 1 11
e 1 14
e 1 16
e 1 18
e 1 18
e 2 4
e 2 4
e 2 5
e 2 8
e 2 8
e 2 9
e 2 17
e 3 1
e 3 6
e 3 9
e 3 11
e 3 12
e 3 21
e 3 22
e 4 1
e 4 5
e 4 7
e 4 19
e 4 22
e 4 22
e 4 22
e 5 8
e 5 8
e 5 9
e 5 10
e 5 11
e 5 14
e 5 15
e 6 1
e 6 2
e 6 8
e 6 11
e 6 16
e 6 22
e 6 22
e 7 3
e 7 5
e 7 8
e 7 14
e 7 19
e 7 20
e 7 21
e 8 5
e 8 7
e 8 16
e 8 16
e 8 17
e 8 17
e 8 18
e 9 2
e 9 4
e 9 7
e 9 10
e 9 11
e 9 14
e 9 16
e 10 1
e 10 1
e 10 13
e 10 16
e 10 21
e 10 22
e 10 22
e 11 3
e 11 5
e 11 8
e 11 13
e 11 18
e 11 21
e 11 21
e 12 7
e 12 8
e 12 14
e 12 15
e 12 15
e 12 21
e 12 22
e 13 5
e 13 9
e 13 9
e 13 10
e 13 17
e 13 21
e 13 21
e 14 6
e 14 9
e 14 10
e 14 15
e 14 17
e 14 19
e 14 20
e 15 8
e 15 8
e 15 9
e 15 13
e 15 16
e 15 17
e 15 19
e 16 9
e 16 9
e 16 12
e 16 18
e 16 19
e 16 22
e 16 22
e 17 4
e 17 4
e 17 5
e 17 10
e 17 14
e 17 16
e 17 22
e 18 6
e 18 12
e 18 14
e 18 17
e 18 20
e 18 22
e 18 22
e 19 4
e 19 6
e 19 11
e 19 11
e 19 11
e 19 12
e 19 18
e 20 6
e 20 7
e 20 10
e 20 16
e 20 17
e 20 21
e 20 22
e 21 3
e 21 8
e 21 15
e 21 16
e 21 16
e 21 19
e 21 20
e 22 2
e 22 7
e 22 8
e 22 9
e 22 9
e 22 16
e 22 17
